p cnf 117 408
-3 -1 0
-3 -2 0
1 2 3 0
-1 -2 -5 0
1 2 -5 0
-1 2 5 0
1 -2 5 0
6 2 -7 0
-6 -2 -7 0
6 -2 7 0
-6 2 7 0
8 -5 0
8 7 0
5 -7 -8 0
9 8 0
9 7 0
-8 -7 -9 0
-10 4 0
-10 9 0
-4 -9 10 0
13 2 0
13 12 0
-2 -12 -13 0
-7 13 -14 0
7 -13 -14 0
-7 -13 14 0
7 13 14 0
11 14 -15 0
-11 -14 -15 0
11 -14 15 0
-11 14 15 0
10 -15 -16 0
-10 15 -16 0
10 15 16 0
-10 -15 16 0
-17 -3 0
-17 -16 0
3 16 17 0
-1 18 -19 0
1 -18 -19 0
-1 -18 19 0
1 18 19 0
-21 19 0
-21 -20 0
-19 20 21 0
22 21 0
22 -5 0
-21 5 -22 0
23 -11 0
23 -6 0
11 6 -23 0
-2 -23 -24 0
2 23 -24 0
-2 23 24 0
2 -23 24 0
25 -24 0
25 -20 0
24 20 -25 0
26 -22 0
26 25 0
22 -25 -26 0
12 7 -27 0
-12 -7 -27 0
12 -7 27 0
-12 7 27 0
27 1 -28 0
-27 -1 -28 0
27 -1 28 0
-27 1 28 0
29 28 0
29 -22 0
-28 22 -29 0
-30 29 0
-30 -10 0
-29 10 30 0
31 26 0
31 -30 0
-26 30 -31 0
7 19 -32 0
-7 -19 -32 0
7 -19 32 0
-7 19 32 0
21 -32 -33 0
-21 32 -33 0
21 32 33 0
-21 -32 33 0
6 34 -35 0
-6 -34 -35 0
6 -34 35 0
-6 34 35 0
-37 -5 0
-37 -20 0
5 20 37 0
38 -36 0
38 -37 0
36 37 -38 0
35 38 -39 0
-35 -38 -39 0
35 -38 39 0
-35 38 39 0
-40 33 0
-40 -39 0
-33 39 40 0
42 27 0
42 41 0
-27 -41 -42 0
40 42 -43 0
-40 -42 -43 0
40 -42 43 0
-40 42 43 0
44 35 -45 0
-44 -35 -45 0
44 -35 45 0
-44 35 45 0
46 -9 0
46 36 0
9 -36 -46 0
47 46 0
47 18 0
-46 -18 -47 0
49 -48 0
49 -11 0
48 11 -49 0
50 -47 0
50 -49 0
47 49 -50 0
-51 45 0
-51 50 0
-45 -50 51 0
-52 47 0
-52 -46 0
-47 46 52 0
53 -13 0
53 -9 0
13 9 -53 0
-54 53 0
-54 -48 0
-53 48 54 0
-48 -4 -55 0
48 4 -55 0
-48 4 55 0
48 -4 55 0
54 -55 -56 0
-54 55 -56 0
54 55 56 0
-54 -55 56 0
-57 -52 0
-57 56 0
52 -56 57 0
58 -51 0
58 -57 0
51 57 -58 0
59 48 0
59 32 0
-48 -32 -59 0
60 21 0
60 59 0
-21 -59 -60 0
61 -60 0
61 22 0
60 -22 -61 0
-62 -58 0
-62 61 0
58 -61 62 0
63 48 0
63 -1 0
-48 1 -63 0
64 -20 0
64 36 0
20 -36 -64 0
-64 35 -65 0
64 -35 -65 0
-64 -35 65 0
64 35 65 0
-66 -63 0
-66 65 0
63 -65 66 0
35 66 -67 0
-35 -66 -67 0
35 -66 67 0
-35 66 67 0
68 14 0
68 6 0
-14 -6 -68 0
-18 13 -69 0
18 -13 -69 0
-18 -13 69 0
18 13 69 0
-70 -69 0
-70 -18 0
69 18 70 0
72 -25 0
72 35 0
25 -35 -72 0
73 71 0
73 72 0
-71 -72 -73 0
-74 -70 0
-74 73 0
70 -73 74 0
-75 -68 0
-75 74 0
68 -74 75 0
-1 -11 -76 0
1 11 -76 0
-1 11 76 0
1 -11 76 0
77 36 0
77 -76 0
-36 76 -77 0
-78 -77 0
-78 76 0
77 -76 78 0
-79 -8 0
-79 -78 0
8 78 79 0
80 -75 0
80 79 0
75 -79 -80 0
-81 67 0
-81 80 0
-67 -80 81 0
82 -62 0
82 81 0
62 -81 -82 0
83 43 0
83 82 0
-43 -82 -83 0
-84 -20 0
-84 -46 0
20 46 84 0
-2 1 -85 0
2 -1 -85 0
-2 -1 85 0
2 1 85 0
-86 85 0
-86 19 0
-85 -19 86 0
-87 13 0
-87 86 0
-13 -86 87 0
88 -15 0
88 -87 0
15 87 -88 0
89 48 0
89 -48 0
90 87 0
90 89 0
-87 -89 -90 0
-85 19 -91 0
85 -19 -91 0
-85 -19 91 0
85 19 91 0
92 -46 0
92 37 0
46 -37 -92 0
91 92 -93 0
-91 -92 -93 0
91 -92 93 0
-91 92 93 0
94 90 0
94 -93 0
-90 93 -94 0
95 -88 0
95 -94 0
88 94 -95 0
-96 84 0
-96 95 0
-84 -95 96 0
66 -32 -97 0
-66 32 -97 0
66 32 97 0
-66 -32 97 0
98 -22 0
98 -97 0
22 97 -98 0
-99 -63 0
-99 -19 0
63 19 99 0
99 37 -100 0
-99 -37 -100 0
99 -37 100 0
-99 37 100 0
101 98 0
101 100 0
-98 -100 -101 0
96 101 -102 0
-96 -101 -102 0
96 -101 102 0
-96 101 102 0
103 -83 0
103 102 0
83 -102 -103 0
104 -31 0
104 103 0
31 -103 -104 0
-17 104 -105 0
17 -104 -105 0
-17 -104 105 0
17 104 105 0
106 28 0
106 -85 0
-28 85 -106 0
-107 34 0
-107 -106 0
-34 106 107 0
108 -25 0
108 9 0
25 -9 -108 0
-109 -32 0
-109 -6 0
32 6 109 0
-5 109 -110 0
5 -109 -110 0
-5 -109 110 0
5 109 110 0
111 -28 0
111 -85 0
28 85 -111 0
-112 110 0
-112 111 0
-110 -111 112 0
113 -108 0
113 112 0
108 -112 -113 0
107 -113 -114 0
-107 113 -114 0
107 113 114 0
-107 -113 114 0
-115 -1 0
-115 -10 0
1 10 115 0
114 115 -116 0
-114 -115 -116 0
114 -115 116 0
-114 115 116 0
117 -105 0
117 -116 0
105 116 -117 0
-96 16 55 -33 -77 0
74 -116 62 59 -87 0
115 103 35 -107 64 -24 0
-73 12 -84 -81 0
36 -38 -55 -1 -97 -33 0
-56 67 -85 42 0
-117 50 111 0
44 -97 -117 -71 34 0
9 -57 49 70 91 -7 0
-52 39 -40 0
-43 -60 0
-111 -20 0
86 -4 0
79 108 0
45 40 114 -9 71 0
95 109 -113 60 0
93 -94 82 0
-21 -94 0
-78 101 34 59 -42 0
77 -78 79 21 -49 0
-9 -20 -17 0
39 -2 -18 -106 0
-62 -3 87 68 0
95 -92 114 0
-95 102 0
-107 32 112 77 53 0
-111 25 0
60 -93 -19 108 0
-53 -60 43 84 0
20 45 0
-12 -113 -88 33 0
13 0
-76 -52 0
61 22 25 92 -41 43 0
2 33 -85 64 -72 0
9 15 -84 41 -12 24 0
71 -35 -102 -90 26 0
76 -82 -49 -75 0
46 36 0
57 -110 108 -60 0
-83 80 -54 -42 70 0
-47 12 0
61 100 11 0
-45 -90 0
-43 -85 30 32 -60 0
77 46 0
112 -86 -20 105 107 0
-103 15 62 -4 0
105 -110 -99 48 -71 -87 0
50 -19 -88 1 0
3 -81 99 -94 0
-100 -85 -47 -63 -41 0
36 -64 11 100 0
-116 52 -37 -39 -53 0
-85 -45 0
114 15 -11 -18 0
69 -114 0
-27 56 51 -70 -108 13 0
-58 -85 27 66 13 0
103 53 60 -113 0
-3 76 -87 -46 -84 103 0
35 -111 -107 -37 -99 -77 0
96 -68 0
12 49 77 -76 89 0
33 36 4 -67 -58 0
-115 -105 37 96 0
78 -58 89 -2 0
-46 -3 0
117 0
